POSCAR_batio3
4.0073
1 0 0 
0 1 0 
0 0 1 
Ba Ti O 
1 1 3 
Cartesian
0.5 0.5 0.5
0.0 0.0 0.0
0.5 0.0 0.0
0.0 0.5 0.0
0.0 0.0 0.5
