POSCAR_nio
4.16991476
0.5 0.5 1.0 
0.5 1.0 0.5 
1.0 0.5 0.5 
Niup Nidn O 
1 1 2 
Cartesian
0.0 0.0 0.0
1.0 1.0 1.0
0.5 0.5 0.5
1.5 1.5 1.5
