Generated by cif2cell 1.2.10.  :  Donohue, P.C. and Young, H.S., Journal of Solid State Chemistry 1, 143-149 (1970).
 1.0
  3.715000000000000   0.000000000000000   0.000000000000000
  0.000000000000000   3.715000000000000   0.000000000000000
  1.857500000000000   1.857500000000000   2.916000000000000
  Ge  As
   1   1
Cartesian
  0.000000000000000   0.000000000000000   0.000000000000000 
  3.715000000000000   3.715000000000000   2.414448000000000 
